Minimize
	value: tt

Subject to
tt + 2000 s_1_1 > 0
tt - t_1_1 - 2000.000000 s_1_1 > -1998.016200
tt + 2000 s_2_1 > 0
tt - t_2_1 - 2000.000000 s_2_1 > -1998.765600
tt + 2000 s_1_2 > 0
tt - t_1_2 - 2000.000000 s_1_2 > -1991.511300
tt + 2000 s_2_2 > 0
tt - t_2_2 - 2000.000000 s_2_2 > -1995.237300
tt + 2000 s_1_3 > 0
tt - t_1_3 - 2000.000000 s_1_3 > -1997.566400
tt + 2000 s_2_3 > 0
tt - t_2_3 - 2000.000000 s_2_3 > -1997.535000
tt + 2000 s_1_4 > 0
tt - t_1_4 - 2000.000000 s_1_4 > -1985.024500
tt + 2000 s_2_4 > 0
tt - t_2_4 - 2000.000000 s_2_4 > -1991.681900
tt + 2000 s_1_5 > 0
tt - t_1_5 - 2020.809280 s_1_5 + 20.809280 s_1_3 > -1999.868400
tt + 2000 s_2_5 > 0
tt - t_2_5 - 2051.376400 s_2_5 + 51.376400 s_2_3 > -1998.738000
s_1_1 + s_2_1  = 1
s_1_2 + s_2_2  = 1
s_1_3 + s_2_3  = 1
s_1_4 + s_2_4  = 1
s_1_5 + s_2_5  = 1
t_1_1 - t_1_2 + 2000.000000 u_1_1_2 > 8.488700
t_1_2 - t_1_1 - 2000.000000 u_1_1_2 > -1998.016200
t_2_1 - t_2_2 + 2000.000000 u_2_1_2 > 4.762700
t_2_2 - t_2_1 - 2000.000000 u_2_1_2 > -1998.765600
t_1_1 - t_1_3 + 2000.000000 u_1_1_3 > 2.433600
t_1_3 - t_1_1 - 2000.000000 u_1_1_3 > -1998.016200
t_2_1 - t_2_3 + 2000.000000 u_2_1_3 > 2.465000
t_2_3 - t_2_1 - 2000.000000 u_2_1_3 > -1998.765600
t_1_1 - t_1_4 + 2000.000000 u_1_1_4 > 14.975500
t_1_4 - t_1_1 - 2000.000000 u_1_1_4 > -1998.016200
t_2_1 - t_2_4 + 2000.000000 u_2_1_4 > 8.318100
t_2_4 - t_2_1 - 2000.000000 u_2_1_4 > -1998.765600
t_1_5 - t_1_1 - 2000.000000 s_1_1 > -1993.559280
t_1_5 - t_2_1 - 2000.000000 s_2_1 > -1985.160680
t_2_5 - t_1_1 - 2000.000000 s_1_1 > -1993.559280
t_2_5 - t_2_1 - 2000.000000 s_2_1 > -1985.160680
t_1_2 - t_1_1 + 2000.000000 u_1_2_1 > 1.983800
t_1_1 - t_1_2 - 2000.000000 u_1_2_1 > -1991.511300
t_2_2 - t_2_1 + 2000.000000 u_2_2_1 > 1.234400
t_2_1 - t_2_2 - 2000.000000 u_2_2_1 > -1995.237300
t_1_2 - t_1_3 + 2000.000000 u_1_2_3 > 2.433600
t_1_3 - t_1_2 - 2000.000000 u_1_2_3 > -1991.511300
t_2_2 - t_2_3 + 2000.000000 u_2_2_3 > 2.465000
t_2_3 - t_2_2 - 2000.000000 u_2_2_3 > -1995.237300
t_1_2 - t_1_4 + 2000.000000 u_1_2_4 > 14.975500
t_1_4 - t_1_2 - 2000.000000 u_1_2_4 > -1991.511300
t_2_2 - t_2_4 + 2000.000000 u_2_2_4 > 8.318100
t_2_4 - t_2_2 - 2000.000000 u_2_2_4 > -1995.237300
t_1_5 - t_1_2 - 2000.000000 s_1_2 > -1987.054380
t_1_5 - t_2_2 - 2000.000000 s_2_2 > -1981.632380
t_2_5 - t_1_2 - 2000.000000 s_1_2 > -1987.054380
t_2_5 - t_2_2 - 2000.000000 s_2_2 > -1981.632380
t_1_3 - t_1_1 + 2000.000000 u_1_3_1 > 1.983800
t_1_1 - t_1_3 - 2000.000000 u_1_3_1 > -1997.566400
t_2_3 - t_2_1 + 2000.000000 u_2_3_1 > 1.234400
t_2_1 - t_2_3 - 2000.000000 u_2_3_1 > -1997.535000
t_1_3 - t_1_2 + 2000.000000 u_1_3_2 > 8.488700
t_1_2 - t_1_3 - 2000.000000 u_1_3_2 > -1997.566400
t_2_3 - t_2_2 + 2000.000000 u_2_3_2 > 4.762700
t_2_2 - t_2_3 - 2000.000000 u_2_3_2 > -1997.535000
t_1_3 - t_1_4 + 2000.000000 u_1_3_4 > 14.975500
t_1_4 - t_1_3 - 2000.000000 u_1_3_4 > -1997.566400
t_2_3 - t_2_4 + 2000.000000 u_2_3_4 > 8.318100
t_2_4 - t_2_3 - 2000.000000 u_2_3_4 > -1997.535000
t_1_5 - t_1_3 - 2000.000000 s_1_3 > -1993.109480
t_1_5 - t_2_3 - 2000.000000 s_2_3 > -1983.930080
t_2_5 - t_1_3 - 2000.000000 s_1_3 > -1993.109480
t_2_5 - t_2_3 - 2000.000000 s_2_3 > -1983.930080
t_1_4 - t_1_1 + 2000.000000 u_1_4_1 > 1.983800
t_1_1 - t_1_4 - 2000.000000 u_1_4_1 > -1985.024500
t_2_4 - t_2_1 + 2000.000000 u_2_4_1 > 1.234400
t_2_1 - t_2_4 - 2000.000000 u_2_4_1 > -1991.681900
t_1_4 - t_1_2 + 2000.000000 u_1_4_2 > 8.488700
t_1_2 - t_1_4 - 2000.000000 u_1_4_2 > -1985.024500
t_2_4 - t_2_2 + 2000.000000 u_2_4_2 > 4.762700
t_2_2 - t_2_4 - 2000.000000 u_2_4_2 > -1991.681900
t_1_4 - t_1_3 + 2000.000000 u_1_4_3 > 2.433600
t_1_3 - t_1_4 - 2000.000000 u_1_4_3 > -1985.024500
t_2_4 - t_2_3 + 2000.000000 u_2_4_3 > 2.465000
t_2_3 - t_2_4 - 2000.000000 u_2_4_3 > -1991.681900
t_1_5 - t_1_4 - 2000.000000 s_1_4 > -1980.567580
t_1_5 - t_2_4 - 2000.000000 s_2_4 > -1978.076980
t_2_5 - t_1_4 - 2000.000000 s_1_4 > -1980.567580
t_2_5 - t_2_4 - 2000.000000 s_2_4 > -1978.076980
t_1_5 - t_1_1 - 2000.000000 s_1_1 > -1993.559280
t_1_5 - t_2_1 - 2000.000000 s_2_1 > -1985.160680
t_2_5 - t_1_1 - 2000.000000 s_1_1 > -1993.559280
t_2_5 - t_2_1 - 2000.000000 s_2_1 > -1985.160680
t_1_5 - t_1_2 - 2000.000000 s_1_2 > -1987.054380
t_1_5 - t_2_2 - 2000.000000 s_2_2 > -1981.632380
t_2_5 - t_1_2 - 2000.000000 s_1_2 > -1987.054380
t_2_5 - t_2_2 - 2000.000000 s_2_2 > -1981.632380
t_1_5 - t_1_3 - 2000.000000 s_1_3 > -1993.109480
t_1_5 - t_2_3 - 2000.000000 s_2_3 > -1983.930080
t_2_5 - t_1_3 - 2000.000000 s_1_3 > -1993.109480
t_2_5 - t_2_3 - 2000.000000 s_2_3 > -1983.930080
t_1_5 - t_1_4 - 2000.000000 s_1_4 > -1980.567580
t_1_5 - t_2_4 - 2000.000000 s_2_4 > -1978.076980
t_2_5 - t_1_4 - 2000.000000 s_1_4 > -1980.567580
t_2_5 - t_2_4 - 2000.000000 s_2_4 > -1978.076980
Binary
s_1_1
s_2_1
s_1_2
s_2_2
s_1_3
s_2_3
s_1_4
s_2_4
s_1_5
s_2_5
u_1_1_2
u_2_1_2
u_1_1_3
u_2_1_3
u_1_1_4
u_2_1_4
u_1_2_1
u_2_2_1
u_1_2_3
u_2_2_3
u_1_2_4
u_2_2_4
u_1_3_1
u_2_3_1
u_1_3_2
u_2_3_2
u_1_3_4
u_2_3_4
u_1_4_1
u_2_4_1
u_1_4_2
u_2_4_2
u_1_4_3
u_2_4_3

End
